
  27    4
   1   1   1   1

   0   0   0   0   0  13 2 3 5 6 7 8 9 10 11 12 24 25 26 
   2   1   0   0   0   7   23   22   19   18   17   14   13
   3   1   0   0   1   4   19   14   13   4
   4   0   0   1   1   3   20   16   15
   2   1   1   0   0   3   21   14   13
   5   0   1   1   1   2   18   17
   8   1   1   0   1   2   17   16
   9   0   1   1   0   2   16   14
   4   0   0   1   0   1   15
   10   0   1   0   0   1   15
   1   1   0   0   1   1   13
   1   1   1   1   1   1   13
   4   1   0   0   1   1   27
   5   0   1   1   1   1   27
   2   0   1   1   0   1   27
   4   1   1   1   1   1   27
   9   0   1   0   1   1   27
   5   1   0   1   0   1   27
   2   0   0   0   1   1   27
   1   1   1   1   0   1   27
   7   0   0   1   0   1   27
   4   1   1   1   0   1   27
   8   0   0   1   1   1   27
   4   1   0   0   0   1   27
   4   0   0   1   0   1   27
   4   0   0   1   1   1   27
   0   0   0   0   0   0 
